Route #1: 1 24 10 29 8 33 14 21 11 1
Route #2: 1 15 36 32 7 45 2 1
Route #3: 1 39 3 26 13 40 37 43 5 34 42 1
Route #4: 1 27 30 44 19 18 31 20 1
Route #5: 1 25 38 35 41 12 28 1
Route #6: 1 16 23 17 9 22 6 1
cost 1076.8680997194156
